32      4       
10      10      10      10      
0       0       0       0       0       1       2       
8       1       0       1       1       2       3       7       
4       1       0       4       4       1       4       
10      0       1       3       7       1       5       
1       2       6       0       3       3       6       11      12      
1       7       0       5       5       1       8       
6       5       2       4       0       1       8       
10      0       1       3       5       1       9       
10      5       0       3       6       1       10      
10      0       4       1       5       1       13      
1       5       6       0       4       1       13      
10      0       5       6       2       1       13      
7       0       4       2       3       1       14      
6       0       5       2       5       1       15      
5       5       5       6       0       2       16      19      
1       5       4       0       3       1       17      
1       3       0       5       5       2       18      23      
10      5       0       8       3       1       20      
9       4       0       7       6       2       22      23      
8       5       3       0       3       1       21      
10      4       8       4       0       1       22      
5       2       0       5       5       2       24      30      
10      1       4       0       1       2       24      30      
3       0       2       5       3       1       25      
3       7       0       4       3       1       26      
8       0       2       3       5       1       27      
4       4       2       4       0       1       28      
6       5       4       2       0       1       29      
7       3       0       4       5       1       31      
5       6       0       5       3       1       31      
5       3       8       0       5       1       32      
0       0       0       0       0       0       
